
Gurobi 5.6.3 (linux64) logging started Wed Jul 22 11:45:01 2015


Gurobi 5.6.3 (linux64) logging started Wed Jul 22 12:55:11 2015


Gurobi 5.6.3 (linux64) logging started Wed Jul 22 12:55:51 2015


Gurobi 5.6.3 (linux64) logging started Wed Jul 22 12:56:15 2015


Gurobi 5.6.3 (linux64) logging started Wed Jul 22 12:56:35 2015


Gurobi 5.6.3 (linux64) logging started Wed Jul 22 12:56:53 2015


Gurobi 5.6.3 (linux64) logging started Wed Jul 22 13:22:06 2015


Gurobi 5.6.3 (linux64) logging started Tue Sep 22 16:26:33 2015


Gurobi 5.6.3 (linux64) logging started Tue Sep 22 16:28:23 2015


Gurobi 5.6.3 (linux64) logging started Tue Sep 22 16:28:38 2015


Gurobi 5.6.3 (linux64) logging started Tue Sep 22 16:33:25 2015


Gurobi 5.6.3 (linux64) logging started Thu Oct 15 16:04:54 2015


Gurobi 5.6.3 (linux64) logging started Thu Oct 15 16:06:18 2015


Gurobi 5.6.3 (linux64) logging started Thu Oct 15 16:06:59 2015


Gurobi 5.6.3 (linux64) logging started Thu Oct 15 16:46:25 2015

